RT is False
Default write of storage_offers_DA.csv just to have a file (but constraint should be inactive)
Reading model...
...model read.
creating competitive generators file...
...competitive generators recorded.
Loading data...
.. day-ahead data with real-time VRE data read.
Compiling instance...
...instance created.
Creating Offer Mitigation (model will solve as dispatch if TRUE)...
NOTE: storage offers will not be mitigated
...storage offer mitigation file created
Converting model to MPEC...
...converted
NOTE: initial MIP solve with only storage competitive to get feasible solution
Solving...

Welcome to IBM(R) ILOG(R) CPLEX(R) Interactive Optimizer 12.9.0.0
  with Simplex, Mixed Integer & Barrier Optimizers
5725-A06 5725-A29 5724-Y48 5724-Y49 5724-Y54 5724-Y55 5655-Y21
Copyright IBM Corp. 1988, 2019.  All Rights Reserved.

Type 'help' for a list of available commands.
Type 'help' followed by a command name for more
information on commands.

CPLEX> Logfile 'cplex.log' closed.
Logfile 'C:\Users\llavin\Desktop\test919\logs\tmpe0vgtj5y.cplex.log' open.
CPLEX> New value for parallel optimization mode: -1
CPLEX> New value for mixed integer optimality gap tolerance: 0.01
CPLEX> New value for integrality tolerance: 1e-09
CPLEX> New value for feasibility tolerance: 0.01
CPLEX> New value for deterministic time limit in ticks: 75000
CPLEX> Problem 'C:\Users\llavin\Desktop\test919\logs\tmpdp1ajm86.pyomo.lp' read.
Read time = 0.23 sec. (14.73 ticks)
CPLEX> Problem name         : C:\Users\llavin\Desktop\test919\logs\tmpdp1ajm86.pyomo.lp
Objective sense      : Maximize
Variables            :   53805  [Nneg: 1,  Box: 22000,  Free: 4464,
                                 Binary: 27340]
Objective nonzeros   :    9029
Linear constraints   :  123205  [Less: 41346,  Greater: 59096,  Equal: 22763]
  Nonzeros           :  291753
  RHS nonzeros       :   67491

Variables            : Min LB: -5000.000        Max UB: 1000000.       
Objective nonzeros   : Min   : 0.7833333        Max   : 2500.000       
Linear constraints   :
  Nonzeros           : Min   : 0.7833333        Max   : 1000000.       
  RHS nonzeros       : Min   : 0.7833333        Max   : 1000000.       
CPLEX> CPXPARAM_Parallel                                -1
CPXPARAM_Simplex_Tolerances_Feasibility          0.01
CPXPARAM_DetTimeLimit                            75000
CPXPARAM_MIP_Tolerances_MIPGap                   0.01
CPXPARAM_MIP_Tolerances_Integrality              1.0000000000000001e-09
Tried aggregator 3 times.
MIP Presolve eliminated 88688 rows and 19012 columns.
MIP Presolve added 3379 rows and 0 columns.
MIP Presolve modified 24757 coefficients.
Aggregator did 12971 substitutions.
Reduced MIP has 24925 rows, 21266 columns, and 71081 nonzeros.
Reduced MIP has 8404 binaries, 0 generals, 0 SOSs, and 0 indicators.
Presolve time = 0.28 sec. (173.33 ticks)
Probing fixed 401 vars, tightened 2837 bounds.
Probing time = 1.20 sec. (882.88 ticks)
Tried aggregator 2 times.
MIP Presolve eliminated 907 rows and 802 columns.
MIP Presolve modified 2213 coefficients.
Aggregator did 43 substitutions.
Reduced MIP has 23975 rows, 20421 columns, and 68336 nonzeros.
Reduced MIP has 8003 binaries, 0 generals, 0 SOSs, and 0 indicators.
Presolve time = 0.11 sec. (66.72 ticks)
Probing time = 0.05 sec. (16.13 ticks)
Clique table members: 6470.
MIP emphasis: balance optimality and feasibility.
MIP search method: dynamic search.
Parallel mode: opportunistic, using up to 32 threads.
Root relaxation solution time = 0.52 sec. (595.90 ticks)

        Nodes                                         Cuts/
   Node  Left     Objective  IInf  Best Integer    Best Bound    ItCnt     Gap

      0     0     4273.4655   911                   4273.4655     7596         
      0     0     4273.4655   664                  Cuts: 1122     8148         
      0     0     4273.3240   433                   Cuts: 759     8533         
      0     0     4273.1825   337                   Cuts: 327     8675         
      0     0     4273.1825   301                    Cuts: 91     8729         
      0     0     4273.1825   275                    Cuts: 53     8764         
      0     0     4273.1825   261                    Cuts: 33     8785         
      0     0     4273.1825   250                    Cuts: 42     8805         
      0     0     4273.1825   239                    Cuts: 33     8819         
      0     0     4273.4565    24                     Cuts: 3     8819         
      0    10    infeasible                           Cuts: 6     9189         
Elapsed time = 10.59 sec. (6775.68 ticks, tree = 0.02 MB, solutions = 0)
    563    58    infeasible                         4272.2002    15129         
*   996+  244                        -2581.1677     4272.2002           265.51%
   1606   446     4123.2478     3    -2581.1677     4272.2002    38820  265.51%
   1942   588        cutoff          -2581.1677     4272.2002    39322  265.51%
   2195   762     4255.7334     3    -2581.1677     4272.2002    40988  265.51%
   2412   809        cutoff          -2581.1677     4272.2002    41375  265.51%
   2640   853     4021.5148     4    -2581.1677     4272.2002    41546  265.51%
   2840   883     4231.5579     1    -2581.1677     4272.2002    41590  265.51%
   2976  1087     4081.8381     9    -2581.1677     4272.2002    42859  265.51%
   3492   865     4221.3046     1     3883.9894     4272.2002    43640   10.00%
Elapsed time = 22.64 sec. (9880.09 ticks, tree = 4.41 MB, solutions = 2)
   4099   816        cutoff           3883.9894     4272.2002    44074   10.00%
   4596   849     4200.7760     4     3883.9894     4272.2002    44339   10.00%
   5197  1040     3891.9932     1     3883.9894     4272.2002    45438   10.00%
   5711  1191     4252.0847     3     3883.9894     4272.2002    46564   10.00%
   6222  1406     3898.5964     1     3911.8693     4272.2002    47993    9.21%
   6823  1782     4266.7526     1     3911.8693     4272.2002    51390    9.21%
   7505  2056     4265.6494     3     3911.8693     4272.2002    53118    9.21%
   8117  2231     4148.5134     3     3911.8693     4272.2002    54582    9.21%
   8547  2091     4264.7310     1     3911.8693     4272.2002    53505    9.21%
   8730  2203     4146.8862     4     3911.8693     4272.2002    54205    9.21%
Elapsed time = 42.38 sec. (19435.07 ticks, tree = 13.89 MB, solutions = 3)
   8882  2217     4252.0022     1     3911.8693     4272.2002    54468    9.21%
   8912  2851    infeasible           3911.8693     4271.9582    65134    9.21%
*  9286    60      integral     0     4110.4100     4245.4307    65769    3.28%
   9986   228     4185.6526     2     4110.4100     4185.6526    66893    1.83%
* 11676   707      integral     0     4147.6823     4185.6526    71139    0.92%
  13082   388     4184.0255     5     4147.6823     4185.6526    68313    0.92%

GUB cover cuts applied:  1
Cover cuts applied:  2
Implied bound cuts applied:  12
Flow cuts applied:  9
Gomory fractional cuts applied:  6

Root node processing (before b&c):
  Real time             =    9.58 sec. (6769.87 ticks)
Parallel b&c, 32 threads:
  Real time             =   48.25 sec. (19654.21 ticks)
  Sync time (average)   =    1.88 sec.
  Wait time (average)   =    0.14 sec.
                          ------------
Total (root+branch&cut) =   57.83 sec. (26424.08 ticks)

Solution pool: 7 solutions saved.

MIP - Integer optimal, tolerance (0.01/1e-06):  Objective =  4.1476822608e+03
Current MIP best bound =  4.1856526257e+03 (gap = 37.9704, 0.92%)
Solution time =   57.84 sec.  Iterations = 82305  Nodes = 14308 (1198)
Deterministic time = 26424.24 ticks  (456.83 ticks/sec)

CPLEX> Incumbent solution written to file 'C:\Users\llavin\Desktop\test919\logs\tmpik7hb7b0.cplex.sol'.
CPLEX> NOTE: no warmstart specified for MIP iteration, default behavior is true
NOTE: resolving with all competitive generators using storage-only solution to warmstart
Solving...

Welcome to IBM(R) ILOG(R) CPLEX(R) Interactive Optimizer 12.9.0.0
  with Simplex, Mixed Integer & Barrier Optimizers
5725-A06 5725-A29 5724-Y48 5724-Y49 5724-Y54 5724-Y55 5655-Y21
Copyright IBM Corp. 1988, 2019.  All Rights Reserved.

Type 'help' for a list of available commands.
Type 'help' followed by a command name for more
information on commands.

CPLEX> Logfile 'cplex.log' closed.
Logfile 'C:\Users\llavin\Desktop\test919\logs\tmpkyof411_.cplex.log' open.
CPLEX> New value for parallel optimization mode: -1
CPLEX> New value for mixed integer optimality gap tolerance: 0.01
CPLEX> New value for integrality tolerance: 1e-09
CPLEX> New value for feasibility tolerance: 0.01
CPLEX> New value for deterministic time limit in ticks: 75000
CPLEX> Problem 'C:\Users\llavin\Desktop\test919\logs\tmpwnf4p7ho.pyomo.lp' read.
Read time = 0.25 sec. (14.75 ticks)
CPLEX> MIP start file 'C:\Users\llavin\Desktop\test919\logs\tmpze54ajxz.cplex.mst' read.
CPLEX> Problem name         : C:\Users\llavin\Desktop\test919\logs\tmpwnf4p7ho.pyomo.lp
Objective sense      : Maximize
Variables            :   54525  [Nneg: 1,  Box: 22720,  Free: 4464,
                                 Binary: 27340]
Objective nonzeros   :    9725
Linear constraints   :  123205  [Less: 41346,  Greater: 59096,  Equal: 22763]
  Nonzeros           :  291753
  RHS nonzeros       :   67491

Variables            : Min LB: -5000.000        Max UB: 1000000.       
Objective nonzeros   : Min   : 0.7833333        Max   : 2500.000       
Linear constraints   :
  Nonzeros           : Min   : 0.7833333        Max   : 1000000.       
  RHS nonzeros       : Min   : 0.7833333        Max   : 1000000.       
CPLEX> CPXPARAM_Parallel                                -1
CPXPARAM_Simplex_Tolerances_Feasibility          0.01
CPXPARAM_DetTimeLimit                            75000
CPXPARAM_MIP_Tolerances_MIPGap                   0.01
CPXPARAM_MIP_Tolerances_Integrality              1.0000000000000001e-09
Warning:  No solution found from 1 MIP starts.
Retaining values of one MIP start for possible repair.
Tried aggregator 3 times.
MIP Presolve eliminated 88688 rows and 19732 columns.
MIP Presolve added 3379 rows and 0 columns.
MIP Presolve modified 24757 coefficients.
Aggregator did 12971 substitutions.
Reduced MIP has 24925 rows, 21266 columns, and 71081 nonzeros.
Reduced MIP has 8404 binaries, 0 generals, 0 SOSs, and 0 indicators.
Presolve time = 0.30 sec. (173.69 ticks)
Probing fixed 401 vars, tightened 2837 bounds.
Probing time = 1.20 sec. (882.88 ticks)
Tried aggregator 2 times.
MIP Presolve eliminated 907 rows and 802 columns.
MIP Presolve modified 2213 coefficients.
Aggregator did 43 substitutions.
Reduced MIP has 23975 rows, 20421 columns, and 68336 nonzeros.
Reduced MIP has 8003 binaries, 0 generals, 0 SOSs, and 0 indicators.
Presolve time = 0.11 sec. (66.74 ticks)
Probing time = 0.03 sec. (16.13 ticks)
Clique table members: 6470.
MIP emphasis: balance optimality and feasibility.
MIP search method: dynamic search.
Parallel mode: opportunistic, using up to 32 threads.
Root relaxation solution time = 0.33 sec. (265.54 ticks)

        Nodes                                         Cuts/
   Node  Left     Objective  IInf  Best Integer    Best Bound    ItCnt     Gap

      0     0    33286.1466  2036                  33286.1466     5820         
      0     0    33085.9295   685                  Cuts: 1046     6405         
      0     0    33069.3727   483                   Cuts: 736     6775         
      0     0    33047.7793   368                   Cuts: 352     6962         
      0     0    33045.0162   330                   Cuts: 135     7018         
      0     0    33044.9431   321                    Cuts: 47     7045         
      0     0    33044.9431   300                    Cuts: 32     7063         
      0     0    33044.9431   297                    Cuts: 31     7072         
      0     0    33044.9431   289                    Cuts: 23     7079         
      0     0    33044.9431   282                    Cuts: 20     7086         
Repair heuristic found nothing.
      0    16    infeasible                           Cuts: 8     7418         
Elapsed time = 12.28 sec. (7027.39 ticks, tree = 0.02 MB, solutions = 0)
    284    69    31368.7280   252                  32864.5732     8188         
    815   164    26116.4550   183                  32862.2972     9364         
   1341   443    26099.3667   183                  32862.2972    12518         
   1918  1314    14455.2623   160                  32862.2972    20934         
   2581  2161    29427.1909   190                  32862.2972    28313         
   3338  2359    14405.3494   134                  32862.2972    29324         
   4353  3177    28244.5739   147                  32862.2972    33204         
   5264  3148     3755.8615   177                  32862.2972    32740         
*  5957+ 2349                        28238.6218    32862.2972            16.37%
   8284  2802    30073.4977   244    28238.6218    32462.4226    42402   14.96%
Elapsed time = 29.02 sec. (10080.09 ticks, tree = 19.13 MB, solutions = 2)
   8504  3727        cutoff          28238.6218    31784.8745    57284   12.56%
   9632   749    30654.9151    50    28238.6218    31771.8241    60796   12.51%
  11074  1714    29746.4216    44    28238.6218    31771.8241    66990   12.51%
  13466  2870    29022.8155    48    28238.6218    31771.8241    77117   12.51%
  15355  3524    29697.4677    21    28238.6218    31771.8241    82946   12.51%
  15709  4624    30351.8733    36    28238.6218    31771.8241    94461   12.51%
  16709  4751    31268.7587   115    30290.3100    31771.8241   120992    4.89%
  18820  4750    31357.2120    45    30290.3100    31771.8241   120983    4.89%
  21552  6398    31474.4507    57    30290.3100    31771.8241   141539    4.89%
  24447  6475    30950.8149    40    30290.3100    31771.8241   142006    4.89%
Elapsed time = 78.19 sec. (23663.19 ticks, tree = 61.74 MB, solutions = 4)
  27357  7864    31510.5358    49    30290.3100    31698.9264   152805    4.65%
  29927 10811    30307.8781    41    30290.3100    31698.9264   174994    4.65%
  31778 12593    30781.8713    56    30290.3100    31691.4948   186390    4.63%
  32244 15988    31534.1081    44    30290.3100    31691.4948   208527    4.63%
  32609 16210    30301.9598    12    30290.3100    31691.4948   209929    4.63%
  33976 17381    30342.0201    40    30290.3100    31691.4948   217266    4.63%
  36031 17031    31041.8420    85    30290.3100    31691.1718   215056    4.62%
  38720 18929    31614.4623    56    30290.3100    31691.1718   229047    4.62%
  41403 17631    30518.6975    57    30290.3100    31691.1690   219763    4.62%
  44174 22820    31661.3851    86    30290.3100    31690.6797   256479    4.62%
Elapsed time = 123.13 sec. (33208.93 ticks, tree = 254.29 MB, solutions = 4)
  46915 25829    30323.7947    45    30290.3100    31690.6797   279163    4.62%
  49638 20362    30292.6338    36    30290.3100    31685.1728   239075    4.60%
  52433 22972    30290.7407    42    30290.3100    31684.0643   257748    4.60%
  55296 31682    30538.3520    43    30290.3100    31684.0643   328515    4.60%
  58257 32784    30298.3362    29    30290.3100    31669.9087   336909    4.55%
  61201 31975    30483.5789    76    30290.3100    31669.9087   331165    4.55%
  63727 33415    31558.3152    51    30290.3100    31669.9087   341364    4.55%
  65576 41345    30542.3196    69    30290.3100    31669.9087   407889    4.55%
  66805 40220    30300.7786    35    30290.3100    31669.9087   398556    4.55%
  68082 39168    30334.5105    53    30290.3100    31669.9087   390622    4.55%
Elapsed time = 165.06 sec. (42748.53 ticks, tree = 466.53 MB, solutions = 4)
  69507 34772    30301.4157    36    30290.3100    31669.9087   354635    4.55%
  70828 40510    30302.1162    34    30290.3100    31669.9087   400979    4.55%
  72111 40550    31616.6237    84    30290.3100    31669.9087   401386    4.55%
  73439 39983    30564.3769    60    30290.3100    31669.9087   396342    4.55%
  74477 41371    31637.0200    50    30290.3100    31669.9087   408540    4.55%
  74936 41487    30313.0248    19    30290.3100    31669.9087   408863    4.55%
  74968 46494        cutoff          30290.3100    30834.2920   456744    1.80%
  75650    76    30723.2832    27    30290.3100    30762.5417   457242    1.56%
  76771   909    30577.9476    19    30290.3100    30762.5389   463150    1.56%
* 77963  1014      integral     0    30469.7104    30762.5389   463794    0.96%
  78405  1066    30657.8578    26    30469.7104    30762.5389   464080    0.96%
Elapsed time = 204.03 sec. (55444.37 ticks, tree = 5.58 MB, solutions = 8)
* 79297  1306      integral     0    30585.3985    30762.5389   465527    0.58%

Cover cuts applied:  4
Implied bound cuts applied:  2
Flow cuts applied:  61
Mixed integer rounding cuts applied:  11
Gomory fractional cuts applied:  17

Root node processing (before b&c):
  Real time             =   10.88 sec. (7018.42 ticks)
Parallel b&c, 32 threads:
  Real time             =  194.44 sec. (49386.36 ticks)
  Sync time (average)   =    4.67 sec.
  Wait time (average)   =    0.50 sec.
                          ------------
Total (root+branch&cut) =  205.31 sec. (56404.78 ticks)

Solution pool: 8 solutions saved.

MIP - Integer optimal, tolerance (0.01/1e-06):  Objective =  3.0585398465e+04
Current MIP best bound =  3.0761104552e+04 (gap = 175.706, 0.57%)
Solution time =  205.36 sec.  Iterations = 475727  Nodes = 79396 (2171)
Deterministic time = 56404.94 ticks  (274.67 ticks/sec)

CPLEX> Incumbent solution written to file 'C:\Users\llavin\Desktop\test919\logs\tmpgj_y9a6u.cplex.sol'.
CPLEX> Exporting results... 
